% demand
num_movements = 30;
loading_factor = [1000, 1550, 1500, 1750, 850, 1400, 900, 1150, 900, 1550, 850, 1250, 1000, 1600, 1350, 1450, 1950, 1900, 1800, 900, 950, 1400, 800, 1900, 900, 1050, 850, 800, 1900, 1950];
pickup_time = [0, 1, 1, 1, 1, 1, 1, 1, 1, 2, 2, 2, 3, 5, 5, 5, 5, 5, 5, 6, 6, 7, 8, 9, 10, 10, 10, 11, 12, 12];
delivery_time = [4, 2, 3, 4, 5, 2, 2, 3, 4, 4, 5, 4, 4, 11, 6, 12, 8, 13, 8, 10, 7, 10, 10, 12, 12, 12, 12, 12, 13, 13];

% transporter definition
total_capacity = 11000;
num_decks = 4;
capacity = [3000, 3000, 1000, 4000];

% ways out of decks
num_ways_out = 2;
paths_out = array3d(decks, ways_out, decks, [
% ways out of deck d1
2, 4, 0, 0, 3, 4, 0, 0, 

% ways out of deck d2
4, 0, 0, 0, 0, 0, 0, 0,	

% ways out of deck d3
4, 0, 0, 0, 0, 0, 0, 0,	

% ways out of deck d4
0, 0, 0, 0,	0, 0, 0, 0,	

]);

